p cnf 961 2466
51 -2 -1 0
-51 2 0
-51 1 0
52 -51 -3 0
-52 51 0
-52 3 0
53 -694 -4 0
-53 694 0
-53 4 0
54 -53 -6 0
-54 53 0
-54 6 0
55 -695 -696 0
-55 695 0
-55 696 0
56 -697 -4 0
-56 697 0
-56 4 0
57 -56 -8 0
-57 56 0
-57 8 0
58 -698 -55 0
-58 698 0
-58 55 0
59 -699 -9 0
-59 699 0
-59 9 0
60 -59 -11 0
-60 59 0
-60 11 0
61 -700 -58 0
-61 700 0
-61 58 0
62 -13 -701 0
-62 13 0
-62 701 0
63 -62 -702 0
-63 62 0
-63 702 0
64 -703 -61 0
-64 703 0
-64 61 0
65 -704 -705 0
-65 704 0
-65 705 0
66 -65 -706 0
-66 65 0
-66 706 0
67 -707 -64 0
-67 707 0
-67 64 0
68 -16 -701 0
-68 16 0
-68 701 0
69 -68 -13 0
-69 68 0
-69 13 0
70 -708 -67 0
-70 708 0
-70 67 0
71 -18 -694 0
-71 18 0
-71 694 0
72 -71 -19 0
-72 71 0
-72 19 0
73 -709 -70 0
-73 709 0
-73 70 0
74 -710 -711 0
-74 710 0
-74 711 0
75 -74 -22 0
-75 74 0
-75 22 0
76 -712 -73 0
-76 712 0
-76 73 0
77 -24 -23 0
-77 24 0
-77 23 0
78 -77 -8 0
-78 77 0
-78 8 0
79 -713 -76 0
-79 713 0
-79 76 0
80 -3 -2 0
-80 3 0
-80 2 0
81 -80 -25 0
-81 80 0
-81 25 0
82 -714 -79 0
-82 714 0
-82 79 0
83 -715 -716 0
-83 715 0
-83 716 0
84 -83 -6 0
-84 83 0
-84 6 0
85 -717 -82 0
-85 717 0
-85 82 0
86 -29 -718 0
-86 29 0
-86 718 0
87 -86 -30 0
-87 86 0
-87 30 0
88 -719 -85 0
-88 719 0
-88 85 0
89 -31 -720 0
-89 31 0
-89 720 0
90 -89 -14 0
-90 89 0
-90 14 0
91 -721 -88 0
-91 721 0
-91 88 0
92 -32 -29 0
-92 32 0
-92 29 0
93 -92 -722 0
-93 92 0
-93 722 0
94 -723 -91 0
-94 723 0
-94 91 0
95 -724 -697 0
-95 724 0
-95 697 0
96 -95 -35 0
-96 95 0
-96 35 0
97 -725 -94 0
-97 725 0
-97 94 0
98 -30 -16 0
-98 30 0
-98 16 0
99 -98 -17 0
-99 98 0
-99 17 0
100 -726 -97 0
-100 726 0
-100 97 0
101 -36 -32 0
-101 36 0
-101 32 0
102 -101 -13 0
-102 101 0
-102 13 0
103 -727 -100 0
-103 727 0
-103 100 0
104 -37 -722 0
-104 37 0
-104 722 0
105 -104 -728 0
-105 104 0
-105 728 0
106 -729 -103 0
-106 729 0
-106 103 0
107 -39 -20 0
-107 39 0
-107 20 0
108 -107 -40 0
-108 107 0
-108 40 0
109 -730 -106 0
-109 730 0
-109 106 0
110 -731 -20 0
-110 731 0
-110 20 0
111 -110 -732 0
-111 110 0
-111 732 0
112 -733 -109 0
-112 733 0
-112 109 0
113 -728 -32 0
-113 728 0
-113 32 0
114 -113 -734 0
-114 113 0
-114 734 0
115 -735 -112 0
-115 735 0
-115 112 0
116 -715 -16 0
-116 715 0
-116 16 0
117 -116 -33 0
-117 116 0
-117 33 0
118 -736 -115 0
-118 736 0
-118 115 0
119 -31 -12 0
-119 31 0
-119 12 0
120 -119 -737 0
-120 119 0
-120 737 0
121 -738 -118 0
-121 738 0
-121 118 0
122 -728 -26 0
-122 728 0
-122 26 0
123 -122 -737 0
-123 122 0
-123 737 0
124 -739 -121 0
-124 739 0
-124 121 0
125 -21 -17 0
-125 21 0
-125 17 0
126 -125 -22 0
-126 125 0
-126 22 0
127 -740 -124 0
-127 740 0
-127 124 0
128 -71 -728 0
-128 71 0
-128 728 0
129 -741 -127 0
-129 741 0
-129 127 0
130 -728 -718 0
-130 728 0
-130 718 0
131 -130 -742 0
-131 130 0
-131 742 0
132 -743 -129 0
-132 743 0
-132 129 0
133 -36 -31 0
-133 36 0
-133 31 0
134 -133 -22 0
-134 133 0
-134 22 0
135 -744 -132 0
-135 744 0
-135 132 0
136 -745 -3 0
-136 745 0
-136 3 0
137 -136 -11 0
-137 136 0
-137 11 0
138 -746 -135 0
-138 746 0
-138 135 0
139 -747 -742 0
-139 747 0
-139 742 0
140 -139 -14 0
-140 139 0
-140 14 0
141 -748 -138 0
-141 748 0
-141 138 0
142 -33 -699 0
-142 33 0
-142 699 0
143 -142 -749 0
-143 142 0
-143 749 0
144 -750 -141 0
-144 750 0
-144 141 0
145 -751 -2 0
-145 751 0
-145 2 0
146 -145 -722 0
-146 145 0
-146 722 0
147 -752 -144 0
-147 752 0
-147 144 0
148 -31 -705 0
-148 31 0
-148 705 0
149 -148 -17 0
-149 148 0
-149 17 0
150 -753 -147 0
-150 753 0
-150 147 0
151 -11 -697 0
-151 11 0
-151 697 0
152 -151 -754 0
-152 151 0
-152 754 0
153 -755 -150 0
-153 755 0
-153 150 0
154 -45 -756 0
-154 45 0
-154 756 0
155 -154 -2 0
-155 154 0
-155 2 0
156 -757 -153 0
-156 757 0
-156 153 0
157 -758 -26 0
-157 758 0
-157 26 0
158 -157 -704 0
-158 157 0
-158 704 0
159 -759 -156 0
-159 759 0
-159 156 0
160 -760 -21 0
-160 760 0
-160 21 0
161 -160 -3 0
-161 160 0
-161 3 0
162 -761 -159 0
-162 761 0
-162 159 0
163 -43 -10 0
-163 43 0
-163 10 0
164 -163 -17 0
-164 163 0
-164 17 0
165 -762 -162 0
-165 762 0
-165 162 0
166 -763 -30 0
-166 763 0
-166 30 0
167 -166 -38 0
-167 166 0
-167 38 0
168 -764 -165 0
-168 764 0
-168 165 0
169 -724 -27 0
-169 724 0
-169 27 0
170 -169 -33 0
-170 169 0
-170 33 0
171 -765 -168 0
-171 765 0
-171 168 0
172 -32 -766 0
-172 32 0
-172 766 0
173 -172 -697 0
-173 172 0
-173 697 0
174 -767 -171 0
-174 767 0
-174 171 0
175 -34 -4 0
-175 34 0
-175 4 0
176 -175 -702 0
-176 175 0
-176 702 0
177 -768 -174 0
-177 768 0
-177 174 0
178 -742 -11 0
-178 742 0
-178 11 0
179 -178 -46 0
-179 178 0
-179 46 0
180 -769 -177 0
-180 769 0
-180 177 0
181 -47 -21 0
-181 47 0
-181 21 0
182 -181 -770 0
-182 181 0
-182 770 0
183 -771 -180 0
-183 771 0
-183 180 0
184 -772 -5 0
-184 772 0
-184 5 0
185 -184 -704 0
-185 184 0
-185 704 0
186 -773 -183 0
-186 773 0
-186 183 0
187 -701 -5 0
-187 701 0
-187 5 0
188 -187 -774 0
-188 187 0
-188 774 0
189 -775 -186 0
-189 775 0
-189 186 0
190 -716 -14 0
-190 716 0
-190 14 0
191 -190 -776 0
-191 190 0
-191 776 0
192 -777 -189 0
-192 777 0
-192 189 0
193 -45 -745 0
-193 45 0
-193 745 0
194 -193 -699 0
-194 193 0
-194 699 0
195 -778 -192 0
-195 778 0
-195 192 0
196 -36 -699 0
-196 36 0
-196 699 0
197 -196 -16 0
-197 196 0
-197 16 0
198 -779 -195 0
-198 779 0
-198 195 0
199 -705 -10 0
-199 705 0
-199 10 0
200 -199 -754 0
-200 199 0
-200 754 0
201 -780 -198 0
-201 780 0
-201 198 0
202 -781 -782 0
-202 781 0
-202 782 0
203 -202 -742 0
-203 202 0
-203 742 0
204 -783 -201 0
-204 783 0
-204 201 0
205 -48 -766 0
-205 48 0
-205 766 0
206 -205 -21 0
-206 205 0
-206 21 0
207 -784 -204 0
-207 784 0
-207 204 0
208 -776 -28 0
-208 776 0
-208 28 0
209 -208 -732 0
-209 208 0
-209 732 0
210 -785 -207 0
-210 785 0
-210 207 0
211 -37 -21 0
-211 37 0
-211 21 0
212 -211 -33 0
-212 211 0
-212 33 0
213 -786 -210 0
-213 786 0
-213 210 0
214 -737 -711 0
-214 737 0
-214 711 0
215 -214 -11 0
-215 214 0
-215 11 0
216 -787 -213 0
-216 787 0
-216 213 0
217 -31 -1 0
-217 31 0
-217 1 0
218 -217 -17 0
-218 217 0
-218 17 0
219 -788 -216 0
-219 788 0
-219 216 0
220 -711 -701 0
-220 711 0
-220 701 0
221 -220 -754 0
-221 220 0
-221 754 0
222 -789 -219 0
-222 789 0
-222 219 0
223 -790 -756 0
-223 790 0
-223 756 0
224 -223 -33 0
-224 223 0
-224 33 0
225 -791 -222 0
-225 791 0
-225 222 0
226 -731 -716 0
-226 731 0
-226 716 0
227 -226 -792 0
-227 226 0
-227 792 0
228 -793 -225 0
-228 793 0
-228 225 0
229 -701 -4 0
-229 701 0
-229 4 0
230 -229 -11 0
-230 229 0
-230 11 0
231 -794 -228 0
-231 794 0
-231 228 0
232 -790 -697 0
-232 790 0
-232 697 0
233 -232 -795 0
-233 232 0
-233 795 0
234 -796 -231 0
-234 796 0
-234 231 0
235 -760 -718 0
-235 760 0
-235 718 0
236 -235 -36 0
-236 235 0
-236 36 0
237 -797 -234 0
-237 797 0
-237 234 0
238 -175 -35 0
-238 175 0
-238 35 0
239 -798 -237 0
-239 798 0
-239 237 0
240 -737 -26 0
-240 737 0
-240 26 0
241 -240 -732 0
-241 240 0
-241 732 0
242 -799 -239 0
-242 799 0
-242 239 0
243 -43 -30 0
-243 43 0
-243 30 0
244 -243 -25 0
-244 243 0
-244 25 0
245 -800 -242 0
-245 800 0
-245 242 0
246 -29 -801 0
-246 29 0
-246 801 0
247 -246 -732 0
-247 246 0
-247 732 0
248 -802 -245 0
-248 802 0
-248 245 0
249 -15 -795 0
-249 15 0
-249 795 0
250 -249 -803 0
-250 249 0
-250 803 0
251 -804 -248 0
-251 804 0
-251 248 0
252 -45 -722 0
-252 45 0
-252 722 0
253 -252 -776 0
-253 252 0
-253 776 0
254 -805 -251 0
-254 805 0
-254 251 0
255 -790 -23 0
-255 790 0
-255 23 0
256 -255 -35 0
-256 255 0
-256 35 0
257 -806 -254 0
-257 806 0
-257 254 0
258 -28 -18 0
-258 28 0
-258 18 0
259 -258 -20 0
-259 258 0
-259 20 0
260 -807 -257 0
-260 807 0
-260 257 0
261 -722 -32 0
-261 722 0
-261 32 0
262 -261 -734 0
-262 261 0
-262 734 0
263 -808 -260 0
-263 808 0
-263 260 0
264 -720 -710 0
-264 720 0
-264 710 0
265 -264 -29 0
-265 264 0
-265 29 0
266 -809 -263 0
-266 809 0
-266 263 0
267 -101 -31 0
-267 101 0
-267 31 0
268 -810 -266 0
-268 810 0
-268 266 0
269 -49 -17 0
-269 49 0
-269 17 0
270 -269 -702 0
-270 269 0
-270 702 0
271 -811 -268 0
-271 811 0
-271 268 0
272 -43 -15 0
-272 43 0
-272 15 0
273 -272 -749 0
-273 272 0
-273 749 0
274 -812 -271 0
-274 812 0
-274 271 0
275 -813 -43 0
-275 813 0
-275 43 0
276 -275 -724 0
-276 275 0
-276 724 0
277 -814 -274 0
-277 814 0
-277 274 0
278 -34 -815 0
-278 34 0
-278 815 0
279 -278 -749 0
-279 278 0
-279 749 0
280 -816 -277 0
-280 816 0
-280 277 0
281 -36 -782 0
-281 36 0
-281 782 0
282 -281 -11 0
-282 281 0
-282 11 0
283 -817 -280 0
-283 817 0
-283 280 0
284 -42 -720 0
-284 42 0
-284 720 0
285 -284 -21 0
-285 284 0
-285 21 0
286 -818 -283 0
-286 818 0
-286 283 0
287 -33 -819 0
-287 33 0
-287 819 0
288 -287 -22 0
-288 287 0
-288 22 0
289 -820 -286 0
-289 820 0
-289 286 0
290 -32 -720 0
-290 32 0
-290 720 0
291 -290 -2 0
-291 290 0
-291 2 0
292 -821 -289 0
-292 821 0
-292 289 0
293 -756 -694 0
-293 756 0
-293 694 0
294 -293 -17 0
-294 293 0
-294 17 0
295 -822 -292 0
-295 822 0
-295 292 0
296 -823 -751 0
-296 823 0
-296 751 0
297 -296 -728 0
-297 296 0
-297 728 0
298 -824 -295 0
-298 824 0
-298 295 0
299 -790 -766 0
-299 790 0
-299 766 0
300 -299 -41 0
-300 299 0
-300 41 0
301 -825 -298 0
-301 825 0
-301 298 0
302 -39 -826 0
-302 39 0
-302 826 0
303 -302 -704 0
-303 302 0
-303 704 0
304 -827 -301 0
-304 827 0
-304 301 0
305 -27 -795 0
-305 27 0
-305 795 0
306 -305 -6 0
-306 305 0
-306 6 0
307 -828 -304 0
-307 828 0
-307 304 0
308 -731 -29 0
-308 731 0
-308 29 0
309 -308 -33 0
-309 308 0
-309 33 0
310 -829 -307 0
-310 829 0
-310 307 0
311 -781 -826 0
-311 781 0
-311 826 0
312 -311 -47 0
-312 311 0
-312 47 0
313 -830 -310 0
-313 830 0
-313 310 0
314 -40 -705 0
-314 40 0
-314 705 0
315 -314 -43 0
-315 314 0
-315 43 0
316 -831 -313 0
-316 831 0
-316 313 0
317 -702 -749 0
-317 702 0
-317 749 0
318 -317 -732 0
-318 317 0
-318 732 0
319 -832 -316 0
-319 832 0
-319 316 0
320 -45 -23 0
-320 45 0
-320 23 0
321 -320 -747 0
-321 320 0
-321 747 0
322 -833 -319 0
-322 833 0
-322 319 0
323 -27 -766 0
-323 27 0
-323 766 0
324 -323 -737 0
-324 323 0
-324 737 0
325 -834 -322 0
-325 834 0
-325 322 0
326 -40 -803 0
-326 40 0
-326 803 0
327 -326 -776 0
-327 326 0
-327 776 0
328 -835 -325 0
-328 835 0
-328 325 0
329 -25 -699 0
-329 25 0
-329 699 0
330 -329 -754 0
-330 329 0
-330 754 0
331 -836 -328 0
-331 836 0
-331 328 0
332 -720 -12 0
-332 720 0
-332 12 0
333 -332 -10 0
-333 332 0
-333 10 0
334 -837 -331 0
-334 837 0
-334 331 0
335 -813 -24 0
-335 813 0
-335 24 0
336 -335 -46 0
-336 335 0
-336 46 0
337 -838 -334 0
-337 838 0
-337 334 0
338 -813 -15 0
-338 813 0
-338 15 0
339 -338 -35 0
-339 338 0
-339 35 0
340 -839 -337 0
-340 839 0
-340 337 0
341 -23 -18 0
-341 23 0
-341 18 0
342 -341 -6 0
-342 341 0
-342 6 0
343 -840 -340 0
-343 840 0
-343 340 0
344 -841 -21 0
-344 841 0
-344 21 0
345 -344 -25 0
-345 344 0
-345 25 0
346 -842 -343 0
-346 842 0
-346 343 0
347 -718 -770 0
-347 718 0
-347 770 0
348 -347 -776 0
-348 347 0
-348 776 0
349 -843 -346 0
-349 843 0
-349 346 0
350 -31 -27 0
-350 31 0
-350 27 0
351 -350 -772 0
-351 350 0
-351 772 0
352 -844 -349 0
-352 844 0
-352 349 0
353 -782 -19 0
-353 782 0
-353 19 0
354 -353 -8 0
-354 353 0
-354 8 0
355 -845 -352 0
-355 845 0
-355 352 0
356 -846 -697 0
-356 846 0
-356 697 0
357 -356 -742 0
-357 356 0
-357 742 0
358 -847 -355 0
-358 847 0
-358 355 0
359 -49 -8 0
-359 49 0
-359 8 0
360 -359 -776 0
-360 359 0
-360 776 0
361 -848 -358 0
-361 848 0
-361 358 0
362 -25 -15 0
-362 25 0
-362 15 0
363 -362 -728 0
-363 362 0
-363 728 0
364 -849 -361 0
-364 849 0
-364 361 0
365 -26 -2 0
-365 26 0
-365 2 0
366 -365 -16 0
-366 365 0
-366 16 0
367 -850 -364 0
-367 850 0
-367 364 0
368 -33 -694 0
-368 33 0
-368 694 0
369 -368 -17 0
-369 368 0
-369 17 0
370 -851 -367 0
-370 851 0
-370 367 0
371 -781 -28 0
-371 781 0
-371 28 0
372 -371 -20 0
-372 371 0
-372 20 0
373 -852 -370 0
-373 852 0
-373 370 0
374 -46 -751 0
-374 46 0
-374 751 0
375 -374 -44 0
-375 374 0
-375 44 0
376 -853 -373 0
-376 853 0
-376 373 0
377 -48 -10 0
-377 48 0
-377 10 0
378 -377 -774 0
-378 377 0
-378 774 0
379 -854 -376 0
-379 854 0
-379 376 0
380 -745 -28 0
-380 745 0
-380 28 0
381 -380 -20 0
-381 380 0
-381 20 0
382 -855 -379 0
-382 855 0
-382 379 0
383 -50 -26 0
-383 50 0
-383 26 0
384 -383 -772 0
-384 383 0
-384 772 0
385 -856 -382 0
-385 856 0
-385 382 0
386 -718 -749 0
-386 718 0
-386 749 0
387 -386 -11 0
-387 386 0
-387 11 0
388 -857 -385 0
-388 857 0
-388 385 0
389 -27 -704 0
-389 27 0
-389 704 0
390 -389 -724 0
-390 389 0
-390 724 0
391 -858 -388 0
-391 858 0
-391 388 0
392 -36 -751 0
-392 36 0
-392 751 0
393 -392 -19 0
-393 392 0
-393 19 0
394 -859 -391 0
-394 859 0
-394 391 0
395 -45 -5 0
-395 45 0
-395 5 0
396 -395 -13 0
-396 395 0
-396 13 0
397 -860 -394 0
-397 860 0
-397 394 0
398 -781 -742 0
-398 781 0
-398 742 0
399 -398 -14 0
-399 398 0
-399 14 0
400 -861 -397 0
-400 861 0
-400 397 0
401 -823 -694 0
-401 823 0
-401 694 0
402 -401 -704 0
-402 401 0
-402 704 0
403 -862 -400 0
-403 862 0
-403 400 0
404 -710 -10 0
-404 710 0
-404 10 0
405 -404 -724 0
-405 404 0
-405 724 0
406 -863 -403 0
-406 863 0
-406 403 0
407 -12 -694 0
-407 12 0
-407 694 0
408 -407 -8 0
-408 407 0
-408 8 0
409 -864 -406 0
-409 864 0
-409 406 0
410 -841 -705 0
-410 841 0
-410 705 0
411 -410 -772 0
-411 410 0
-411 772 0
412 -865 -409 0
-412 865 0
-412 409 0
413 -48 -7 0
-413 48 0
-413 7 0
414 -413 -22 0
-414 413 0
-414 22 0
415 -866 -412 0
-415 866 0
-415 412 0
416 -763 -815 0
-416 763 0
-416 815 0
417 -416 -29 0
-417 416 0
-417 29 0
418 -867 -415 0
-418 867 0
-418 415 0
419 -47 -32 0
-419 47 0
-419 32 0
420 -419 -722 0
-420 419 0
-420 722 0
421 -868 -418 0
-421 868 0
-421 418 0
422 -790 -763 0
-422 790 0
-422 763 0
423 -422 -9 0
-423 422 0
-423 9 0
424 -869 -421 0
-424 869 0
-424 421 0
425 -27 -13 0
-425 27 0
-425 13 0
426 -425 -749 0
-426 425 0
-426 749 0
427 -870 -424 0
-427 870 0
-427 424 0
428 -50 -16 0
-428 50 0
-428 16 0
429 -428 -782 0
-429 428 0
-429 782 0
430 -871 -427 0
-430 871 0
-430 427 0
431 -21 -10 0
-431 21 0
-431 10 0
432 -431 -694 0
-432 431 0
-432 694 0
433 -872 -430 0
-433 872 0
-433 430 0
434 -20 -18 0
-434 20 0
-434 18 0
435 -434 -44 0
-435 434 0
-435 44 0
436 -873 -433 0
-436 873 0
-436 433 0
437 -813 -823 0
-437 813 0
-437 823 0
438 -437 -774 0
-438 437 0
-438 774 0
439 -874 -436 0
-439 874 0
-439 436 0
440 -39 -705 0
-440 39 0
-440 705 0
441 -440 -774 0
-441 440 0
-441 774 0
442 -875 -439 0
-442 875 0
-442 439 0
443 -50 -760 0
-443 50 0
-443 760 0
444 -443 -724 0
-444 443 0
-444 724 0
445 -876 -442 0
-445 876 0
-445 442 0
446 -23 -697 0
-446 23 0
-446 697 0
447 -446 -24 0
-447 446 0
-447 24 0
448 -877 -445 0
-448 877 0
-448 445 0
449 -756 -823 0
-449 756 0
-449 823 0
450 -449 -14 0
-450 449 0
-450 14 0
451 -878 -448 0
-451 878 0
-451 448 0
452 -758 -819 0
-452 758 0
-452 819 0
453 -452 -16 0
-453 452 0
-453 16 0
454 -879 -451 0
-454 879 0
-454 451 0
455 -50 -28 0
-455 50 0
-455 28 0
456 -455 -815 0
-456 455 0
-456 815 0
457 -880 -454 0
-457 880 0
-457 454 0
458 -33 -772 0
-458 33 0
-458 772 0
459 -458 -22 0
-459 458 0
-459 22 0
460 -881 -457 0
-460 881 0
-460 457 0
461 -383 -694 0
-461 383 0
-461 694 0
462 -882 -460 0
-462 882 0
-462 460 0
463 -20 -16 0
-463 20 0
-463 16 0
464 -463 -742 0
-464 463 0
-464 742 0
465 -883 -462 0
-465 883 0
-465 462 0
466 -720 -694 0
-466 720 0
-466 694 0
467 -466 -11 0
-467 466 0
-467 11 0
468 -884 -465 0
-468 884 0
-468 465 0
469 -720 -3 0
-469 720 0
-469 3 0
470 -469 -705 0
-470 469 0
-470 705 0
471 -885 -468 0
-471 885 0
-471 468 0
472 -751 -705 0
-472 751 0
-472 705 0
473 -472 -41 0
-473 472 0
-473 41 0
474 -886 -471 0
-474 886 0
-474 471 0
475 -694 -770 0
-475 694 0
-475 770 0
476 -475 -782 0
-476 475 0
-476 782 0
477 -887 -474 0
-477 887 0
-477 474 0
478 -790 -846 0
-478 790 0
-478 846 0
479 -478 -35 0
-479 478 0
-479 35 0
480 -888 -477 0
-480 888 0
-480 477 0
481 -26 -766 0
-481 26 0
-481 766 0
482 -481 -22 0
-482 481 0
-482 22 0
483 -889 -480 0
-483 889 0
-483 480 0
484 -731 -720 0
-484 731 0
-484 720 0
485 -484 -46 0
-485 484 0
-485 46 0
486 -890 -483 0
-486 890 0
-486 483 0
487 -792 -710 0
-487 792 0
-487 710 0
488 -487 -11 0
-488 487 0
-488 11 0
489 -891 -486 0
-489 891 0
-489 486 0
490 -40 -34 0
-490 40 0
-490 34 0
491 -490 -706 0
-491 490 0
-491 706 0
492 -892 -489 0
-492 892 0
-492 489 0
493 -6 -819 0
-493 6 0
-493 819 0
494 -493 -801 0
-494 493 0
-494 801 0
495 -893 -492 0
-495 893 0
-495 492 0
496 -758 -4 0
-496 758 0
-496 4 0
497 -496 -705 0
-497 496 0
-497 705 0
498 -894 -495 0
-498 894 0
-498 495 0
499 -813 -756 0
-499 813 0
-499 756 0
500 -499 -10 0
-500 499 0
-500 10 0
501 -895 -498 0
-501 895 0
-501 498 0
502 -43 -702 0
-502 43 0
-502 702 0
503 -502 -774 0
-503 502 0
-503 774 0
504 -896 -501 0
-504 896 0
-504 501 0
505 -48 -770 0
-505 48 0
-505 770 0
506 -505 -8 0
-506 505 0
-506 8 0
507 -897 -504 0
-507 897 0
-507 504 0
508 -826 -7 0
-508 826 0
-508 7 0
509 -508 -14 0
-509 508 0
-509 14 0
510 -898 -507 0
-510 898 0
-510 507 0
511 -16 -2 0
-511 16 0
-511 2 0
512 -511 -749 0
-512 511 0
-512 749 0
513 -899 -510 0
-513 899 0
-513 510 0
514 -760 -823 0
-514 760 0
-514 823 0
515 -514 -770 0
-515 514 0
-515 770 0
516 -900 -513 0
-516 900 0
-516 513 0
517 -32 -30 0
-517 32 0
-517 30 0
518 -517 -737 0
-518 517 0
-518 737 0
519 -901 -516 0
-519 901 0
-519 516 0
520 -790 -10 0
-520 790 0
-520 10 0
521 -520 -841 0
-521 520 0
-521 841 0
522 -902 -519 0
-522 902 0
-522 519 0
523 -12 -10 0
-523 12 0
-523 10 0
524 -523 -710 0
-524 523 0
-524 710 0
525 -903 -522 0
-525 903 0
-525 522 0
526 -39 -33 0
-526 39 0
-526 33 0
527 -526 -19 0
-527 526 0
-527 19 0
528 -904 -525 0
-528 904 0
-528 525 0
529 -718 -706 0
-529 718 0
-529 706 0
530 -529 -734 0
-530 529 0
-530 734 0
531 -905 -528 0
-531 905 0
-531 528 0
532 -377 -705 0
-532 377 0
-532 705 0
533 -906 -531 0
-533 906 0
-533 531 0
534 -813 -1 0
-534 813 0
-534 1 0
535 -534 -724 0
-535 534 0
-535 724 0
536 -907 -533 0
-536 907 0
-536 533 0
537 -45 -763 0
-537 45 0
-537 763 0
538 -537 -716 0
-538 537 0
-538 716 0
539 -908 -536 0
-539 908 0
-539 536 0
540 -715 -18 0
-540 715 0
-540 18 0
541 -540 -731 0
-541 540 0
-541 731 0
542 -909 -539 0
-542 909 0
-542 539 0
543 -48 -22 0
-543 48 0
-543 22 0
544 -543 -754 0
-544 543 0
-544 754 0
545 -910 -542 0
-545 910 0
-545 542 0
546 -704 -815 0
-546 704 0
-546 815 0
547 -546 -734 0
-547 546 0
-547 734 0
548 -911 -545 0
-548 911 0
-548 545 0
549 -27 -2 0
-549 27 0
-549 2 0
550 -549 -13 0
-550 549 0
-550 13 0
551 -912 -548 0
-551 912 0
-551 548 0
552 -45 -22 0
-552 45 0
-552 22 0
553 -552 -749 0
-553 552 0
-553 749 0
554 -913 -551 0
-554 913 0
-554 551 0
555 -50 -801 0
-555 50 0
-555 801 0
556 -555 -702 0
-556 555 0
-556 702 0
557 -914 -554 0
-557 914 0
-557 554 0
558 -50 -747 0
-558 50 0
-558 747 0
559 -558 -702 0
-559 558 0
-559 702 0
560 -915 -557 0
-560 915 0
-560 557 0
561 -745 -699 0
-561 745 0
-561 699 0
562 -561 -24 0
-562 561 0
-562 24 0
563 -916 -560 0
-563 916 0
-563 560 0
564 -48 -9 0
-564 48 0
-564 9 0
565 -564 -19 0
-565 564 0
-565 19 0
566 -917 -563 0
-566 917 0
-566 563 0
567 -34 -711 0
-567 34 0
-567 711 0
568 -567 -734 0
-568 567 0
-568 734 0
569 -918 -566 0
-569 918 0
-569 566 0
570 -711 -2 0
-570 711 0
-570 2 0
571 -570 -724 0
-571 570 0
-571 724 0
572 -919 -569 0
-572 919 0
-572 569 0
573 -792 -737 0
-573 792 0
-573 737 0
574 -573 -742 0
-574 573 0
-574 742 0
575 -920 -572 0
-575 920 0
-575 572 0
576 -45 -21 0
-576 45 0
-576 21 0
577 -576 -841 0
-577 576 0
-577 841 0
578 -921 -575 0
-578 921 0
-578 575 0
579 -24 -815 0
-579 24 0
-579 815 0
580 -579 -14 0
-580 579 0
-580 14 0
581 -922 -578 0
-581 922 0
-581 578 0
582 -275 -792 0
-582 275 0
-582 792 0
583 -923 -581 0
-583 923 0
-583 581 0
584 -29 -2 0
-584 29 0
-584 2 0
585 -584 -46 0
-585 584 0
-585 46 0
586 -924 -583 0
-586 924 0
-586 583 0
587 -50 -2 0
-587 50 0
-587 2 0
588 -587 -30 0
-588 587 0
-588 30 0
589 -925 -586 0
-589 925 0
-589 586 0
590 -760 -801 0
-590 760 0
-590 801 0
591 -590 -8 0
-591 590 0
-591 8 0
592 -926 -589 0
-592 926 0
-592 589 0
593 -18 -819 0
-593 18 0
-593 819 0
594 -593 -35 0
-594 593 0
-594 35 0
595 -927 -592 0
-595 927 0
-595 592 0
596 -699 -770 0
-596 699 0
-596 770 0
597 -596 -702 0
-597 596 0
-597 702 0
598 -928 -595 0
-598 928 0
-598 595 0
599 -782 -1 0
-599 782 0
-599 1 0
600 -599 -728 0
-600 599 0
-600 728 0
601 -929 -598 0
-601 929 0
-601 598 0
602 -813 -3 0
-602 813 0
-602 3 0
603 -602 -34 0
-603 602 0
-603 34 0
604 -930 -601 0
-604 930 0
-604 601 0
605 -760 -699 0
-605 760 0
-605 699 0
606 -605 -734 0
-606 605 0
-606 734 0
607 -931 -604 0
-607 931 0
-607 604 0
608 -160 -697 0
-608 160 0
-608 697 0
609 -932 -607 0
-609 932 0
-609 607 0
610 -705 -5 0
-610 705 0
-610 5 0
611 -610 -44 0
-611 610 0
-611 44 0
612 -933 -609 0
-612 933 0
-612 609 0
613 -737 -14 0
-613 737 0
-613 14 0
614 -613 -754 0
-614 613 0
-614 754 0
615 -934 -612 0
-615 934 0
-615 612 0
616 -34 -722 0
-616 34 0
-616 722 0
617 -616 -792 0
-617 616 0
-617 792 0
618 -935 -615 0
-618 935 0
-618 615 0
619 -371 -43 0
-619 371 0
-619 43 0
620 -936 -618 0
-620 936 0
-620 618 0
621 -813 -26 0
-621 813 0
-621 26 0
622 -621 -697 0
-622 621 0
-622 697 0
623 -937 -620 0
-623 937 0
-623 620 0
624 -731 -763 0
-624 731 0
-624 763 0
625 -624 -24 0
-625 624 0
-625 24 0
626 -938 -623 0
-626 938 0
-626 623 0
627 -37 -710 0
-627 37 0
-627 710 0
628 -627 -742 0
-628 627 0
-628 742 0
629 -939 -626 0
-629 939 0
-629 626 0
630 -5 -770 0
-630 5 0
-630 770 0
631 -630 -25 0
-631 630 0
-631 25 0
632 -940 -629 0
-632 940 0
-632 629 0
633 -715 -819 0
-633 715 0
-633 819 0
634 -633 -803 0
-634 633 0
-634 803 0
635 -941 -632 0
-635 941 0
-635 632 0
636 -801 -10 0
-636 801 0
-636 10 0
637 -636 -702 0
-637 636 0
-637 702 0
638 -942 -635 0
-638 942 0
-638 635 0
639 -36 -823 0
-639 36 0
-639 823 0
640 -639 -715 0
-640 639 0
-640 715 0
641 -943 -638 0
-641 943 0
-641 638 0
642 -136 -754 0
-642 136 0
-642 754 0
643 -944 -641 0
-643 944 0
-643 641 0
644 -45 -27 0
-644 45 0
-644 27 0
645 -644 -14 0
-645 644 0
-645 14 0
646 -945 -643 0
-646 945 0
-646 643 0
647 -9 -4 0
-647 9 0
-647 4 0
648 -647 -46 0
-648 647 0
-648 46 0
649 -946 -646 0
-649 946 0
-649 646 0
650 -48 -39 0
-650 48 0
-650 39 0
651 -650 -801 0
-651 650 0
-651 801 0
652 -947 -649 0
-652 947 0
-652 649 0
653 -31 -766 0
-653 31 0
-653 766 0
654 -653 -11 0
-654 653 0
-654 11 0
655 -948 -652 0
-655 948 0
-655 652 0
656 -758 -718 0
-656 758 0
-656 718 0
657 -656 -697 0
-657 656 0
-657 697 0
658 -949 -655 0
-658 949 0
-658 655 0
659 -37 -16 0
-659 37 0
-659 16 0
660 -659 -803 0
-660 659 0
-660 803 0
661 -950 -658 0
-661 950 0
-661 658 0
662 -36 -701 0
-662 36 0
-662 701 0
663 -662 -815 0
-663 662 0
-663 815 0
664 -951 -661 0
-664 951 0
-664 661 0
665 -14 -701 0
-665 14 0
-665 701 0
666 -665 -754 0
-666 665 0
-666 754 0
667 -952 -664 0
-667 952 0
-667 664 0
668 -37 -4 0
-668 37 0
-668 4 0
669 -668 -34 0
-669 668 0
-669 34 0
670 -953 -667 0
-670 953 0
-670 667 0
671 -758 -40 0
-671 758 0
-671 40 0
672 -671 -841 0
-672 671 0
-672 841 0
673 -954 -670 0
-673 954 0
-673 670 0
674 -846 -39 0
-674 846 0
-674 39 0
675 -674 -17 0
-675 674 0
-675 17 0
676 -955 -673 0
-676 955 0
-676 673 0
677 -751 -21 0
-677 751 0
-677 21 0
678 -677 -38 0
-678 677 0
-678 38 0
679 -956 -676 0
-679 956 0
-679 676 0
680 -624 -702 0
-680 624 0
-680 702 0
681 -957 -679 0
-681 957 0
-681 679 0
682 -23 -694 0
-682 23 0
-682 694 0
683 -682 -792 0
-683 682 0
-683 792 0
684 -958 -681 0
-684 958 0
-684 681 0
685 -37 -7 0
-685 37 0
-685 7 0
686 -685 -22 0
-686 685 0
-686 22 0
687 -959 -684 0
-687 959 0
-687 684 0
688 -745 -711 0
-688 745 0
-688 711 0
689 -688 -801 0
-689 688 0
-689 801 0
690 -960 -687 0
-690 960 0
-690 687 0
691 -718 -782 0
-691 718 0
-691 782 0
692 -691 -728 0
-692 691 0
-692 728 0
693 -961 -690 0
-693 961 0
-693 690 0
-694 -5 0
694 5 0
-695 -54 0
695 54 0
-696 -52 0
696 52 0
-697 -7 0
697 7 0
-698 -57 0
698 57 0
-699 -10 0
699 10 0
-700 -60 0
700 60 0
-701 -12 0
701 12 0
-702 -14 0
702 14 0
-703 -63 0
703 63 0
-704 -16 0
704 16 0
-705 -15 0
705 15 0
-706 -17 0
706 17 0
-707 -66 0
707 66 0
-708 -69 0
708 69 0
-709 -72 0
709 72 0
-710 -21 0
710 21 0
-711 -20 0
711 20 0
-712 -75 0
712 75 0
-713 -78 0
713 78 0
-714 -81 0
714 81 0
-715 -27 0
715 27 0
-716 -26 0
716 26 0
-717 -84 0
717 84 0
-718 -28 0
718 28 0
-719 -87 0
719 87 0
-720 -23 0
720 23 0
-721 -90 0
721 90 0
-722 -33 0
722 33 0
-723 -93 0
723 93 0
-724 -34 0
724 34 0
-725 -96 0
725 96 0
-726 -99 0
726 99 0
-727 -102 0
727 102 0
-728 -38 0
728 38 0
-729 -105 0
729 105 0
-730 -108 0
730 108 0
-731 -40 0
731 40 0
-732 -35 0
732 35 0
-733 -111 0
733 111 0
-734 -22 0
734 22 0
-735 -114 0
735 114 0
-736 -117 0
736 117 0
-737 -41 0
737 41 0
-738 -120 0
738 120 0
-739 -123 0
739 123 0
-740 -126 0
740 126 0
-741 -128 0
741 128 0
-742 -13 0
742 13 0
-743 -131 0
743 131 0
-744 -134 0
744 134 0
-745 -42 0
745 42 0
-746 -137 0
746 137 0
-747 -43 0
747 43 0
-748 -140 0
748 140 0
-749 -8 0
749 8 0
-750 -143 0
750 143 0
-751 -25 0
751 25 0
-752 -146 0
752 146 0
-753 -149 0
753 149 0
-754 -44 0
754 44 0
-755 -152 0
755 152 0
-756 -36 0
756 36 0
-757 -155 0
757 155 0
-758 -45 0
758 45 0
-759 -158 0
759 158 0
-760 -37 0
760 37 0
-761 -161 0
761 161 0
-762 -164 0
762 164 0
-763 -39 0
763 39 0
-764 -167 0
764 167 0
-765 -170 0
765 170 0
-766 -2 0
766 2 0
-767 -173 0
767 173 0
-768 -176 0
768 176 0
-769 -179 0
769 179 0
-770 -4 0
770 4 0
-771 -182 0
771 182 0
-772 -30 0
772 30 0
-773 -185 0
773 185 0
-774 -11 0
774 11 0
-775 -188 0
775 188 0
-776 -46 0
776 46 0
-777 -191 0
777 191 0
-778 -194 0
778 194 0
-779 -197 0
779 197 0
-780 -200 0
780 200 0
-781 -32 0
781 32 0
-782 -24 0
782 24 0
-783 -203 0
783 203 0
-784 -206 0
784 206 0
-785 -209 0
785 209 0
-786 -212 0
786 212 0
-787 -215 0
787 215 0
-788 -218 0
788 218 0
-789 -221 0
789 221 0
-790 -48 0
790 48 0
-791 -224 0
791 224 0
-792 -49 0
792 49 0
-793 -227 0
793 227 0
-794 -230 0
794 230 0
-795 -3 0
795 3 0
-796 -233 0
796 233 0
-797 -236 0
797 236 0
-798 -238 0
798 238 0
-799 -241 0
799 241 0
-800 -244 0
800 244 0
-801 -19 0
801 19 0
-802 -247 0
802 247 0
-803 -6 0
803 6 0
-804 -250 0
804 250 0
-805 -253 0
805 253 0
-806 -256 0
806 256 0
-807 -259 0
807 259 0
-808 -262 0
808 262 0
-809 -265 0
809 265 0
-810 -267 0
810 267 0
-811 -270 0
811 270 0
-812 -273 0
812 273 0
-813 -50 0
813 50 0
-814 -276 0
814 276 0
-815 -9 0
815 9 0
-816 -279 0
816 279 0
-817 -282 0
817 282 0
-818 -285 0
818 285 0
-819 -1 0
819 1 0
-820 -288 0
820 288 0
-821 -291 0
821 291 0
-822 -294 0
822 294 0
-823 -31 0
823 31 0
-824 -297 0
824 297 0
-825 -300 0
825 300 0
-826 -18 0
826 18 0
-827 -303 0
827 303 0
-828 -306 0
828 306 0
-829 -309 0
829 309 0
-830 -312 0
830 312 0
-831 -315 0
831 315 0
-832 -318 0
832 318 0
-833 -321 0
833 321 0
-834 -324 0
834 324 0
-835 -327 0
835 327 0
-836 -330 0
836 330 0
-837 -333 0
837 333 0
-838 -336 0
838 336 0
-839 -339 0
839 339 0
-840 -342 0
840 342 0
-841 -29 0
841 29 0
-842 -345 0
842 345 0
-843 -348 0
843 348 0
-844 -351 0
844 351 0
-845 -354 0
845 354 0
-846 -47 0
846 47 0
-847 -357 0
847 357 0
-848 -360 0
848 360 0
-849 -363 0
849 363 0
-850 -366 0
850 366 0
-851 -369 0
851 369 0
-852 -372 0
852 372 0
-853 -375 0
853 375 0
-854 -378 0
854 378 0
-855 -381 0
855 381 0
-856 -384 0
856 384 0
-857 -387 0
857 387 0
-858 -390 0
858 390 0
-859 -393 0
859 393 0
-860 -396 0
860 396 0
-861 -399 0
861 399 0
-862 -402 0
862 402 0
-863 -405 0
863 405 0
-864 -408 0
864 408 0
-865 -411 0
865 411 0
-866 -414 0
866 414 0
-867 -417 0
867 417 0
-868 -420 0
868 420 0
-869 -423 0
869 423 0
-870 -426 0
870 426 0
-871 -429 0
871 429 0
-872 -432 0
872 432 0
-873 -435 0
873 435 0
-874 -438 0
874 438 0
-875 -441 0
875 441 0
-876 -444 0
876 444 0
-877 -447 0
877 447 0
-878 -450 0
878 450 0
-879 -453 0
879 453 0
-880 -456 0
880 456 0
-881 -459 0
881 459 0
-882 -461 0
882 461 0
-883 -464 0
883 464 0
-884 -467 0
884 467 0
-885 -470 0
885 470 0
-886 -473 0
886 473 0
-887 -476 0
887 476 0
-888 -479 0
888 479 0
-889 -482 0
889 482 0
-890 -485 0
890 485 0
-891 -488 0
891 488 0
-892 -491 0
892 491 0
-893 -494 0
893 494 0
-894 -497 0
894 497 0
-895 -500 0
895 500 0
-896 -503 0
896 503 0
-897 -506 0
897 506 0
-898 -509 0
898 509 0
-899 -512 0
899 512 0
-900 -515 0
900 515 0
-901 -518 0
901 518 0
-902 -521 0
902 521 0
-903 -524 0
903 524 0
-904 -527 0
904 527 0
-905 -530 0
905 530 0
-906 -532 0
906 532 0
-907 -535 0
907 535 0
-908 -538 0
908 538 0
-909 -541 0
909 541 0
-910 -544 0
910 544 0
-911 -547 0
911 547 0
-912 -550 0
912 550 0
-913 -553 0
913 553 0
-914 -556 0
914 556 0
-915 -559 0
915 559 0
-916 -562 0
916 562 0
-917 -565 0
917 565 0
-918 -568 0
918 568 0
-919 -571 0
919 571 0
-920 -574 0
920 574 0
-921 -577 0
921 577 0
-922 -580 0
922 580 0
-923 -582 0
923 582 0
-924 -585 0
924 585 0
-925 -588 0
925 588 0
-926 -591 0
926 591 0
-927 -594 0
927 594 0
-928 -597 0
928 597 0
-929 -600 0
929 600 0
-930 -603 0
930 603 0
-931 -606 0
931 606 0
-932 -608 0
932 608 0
-933 -611 0
933 611 0
-934 -614 0
934 614 0
-935 -617 0
935 617 0
-936 -619 0
936 619 0
-937 -622 0
937 622 0
-938 -625 0
938 625 0
-939 -628 0
939 628 0
-940 -631 0
940 631 0
-941 -634 0
941 634 0
-942 -637 0
942 637 0
-943 -640 0
943 640 0
-944 -642 0
944 642 0
-945 -645 0
945 645 0
-946 -648 0
946 648 0
-947 -651 0
947 651 0
-948 -654 0
948 654 0
-949 -657 0
949 657 0
-950 -660 0
950 660 0
-951 -663 0
951 663 0
-952 -666 0
952 666 0
-953 -669 0
953 669 0
-954 -672 0
954 672 0
-955 -675 0
955 675 0
-956 -678 0
956 678 0
-957 -680 0
957 680 0
-958 -683 0
958 683 0
-959 -686 0
959 686 0
-960 -689 0
960 689 0
-961 -692 0
961 692 0
693 0
